325729
6 51227
155
62809 62808 62807 62806 62805 62804 62803 62802 62801 62800 62799 62798 62797 62796 62795 62794 62793 62792 62791 62790 62789 62788 62787 62786 62785 62784 62783 62782 62781 62780 62779 62778 62777 62776 62775 62774 62773 62772 62771 62770 62769 62768 62767 62766 62765 62764 62763 62762 62761 62760 62759 62758 62757 62756 62755 62754 62753 62752 62751 62750 62749 62748 62747 62746 62745 62744 62743 62742 62741 62740 62739 62738 62737 62736 62735 62734 62733 62732 62731 62730 62729 62728 62727 62726 62725 62724 62723 62722 62721 62720 62719 62718 62717 62716 62715 62714 62713 62712 62711 62710 62709 62708 62707 62706 62705 62704 62703 62702 62701 62700 62699 62698 62697 62696 62695 62694 62693 62692 62691 62690 62689 62688 62687 62686 62685 62684 62683 62682 62681 62680 62679 62678 62677 62676 62675 62674 62673 62672 62671 62670 62669 62668 62667 62666 62665 62664 62663 62662 62661 62630 59300 52566 52565 23860 59489 
760 8181
6250.59
